(declare-fun a_ack!66 () (_ BitVec 64))
(declare-fun b_ack!65 () (_ BitVec 64))
(assert (fp.gt ((_ to_fp 11 53) a_ack!66) ((_ to_fp 11 53) #x0000000000000000)))
(assert (fp.geq ((_ to_fp 11 53) b_ack!65) ((_ to_fp 11 53) #x0000000000000000)))
(assert (let ((a!1 (fp.eq (fp.abs (fp.mul roundNearestTiesToEven
                                  ((_ to_fp 11 53) #x4000000000000000)
                                  ((_ to_fp 11 53) a_ack!66)))
                  ((_ to_fp 11 53) #x0000000000000000))))
  (not a!1)))
(assert (let ((a!1 (fp.div roundNearestTiesToEven
                   (fp.mul roundNearestTiesToEven
                           (fp.mul roundNearestTiesToEven
                                   ((_ to_fp 11 53) #x4000000000000000)
                                   ((_ to_fp 11 53) a_ack!66))
                           ((_ to_fp 11 53) #x2006a09e667f3bcd))
                   (fp.mul roundNearestTiesToEven
                           ((_ to_fp 11 53) #x4000000000000000)
                           ((_ to_fp 11 53) a_ack!66)))))
  (fp.eq a!1 ((_ to_fp 11 53) #x2006a09e667f3bcd))))
(assert (let ((a!1 (fp.div roundNearestTiesToEven
                   (fp.mul roundNearestTiesToEven
                           (fp.mul roundNearestTiesToEven
                                   ((_ to_fp 11 53) #x4000000000000000)
                                   ((_ to_fp 11 53) a_ack!66))
                           ((_ to_fp 11 53) #x2006a09e667f3bcd))
                   ((_ to_fp 11 53) #x2006a09e667f3bcd))))
  (fp.eq a!1
         (fp.mul roundNearestTiesToEven
                 ((_ to_fp 11 53) #x4000000000000000)
                 ((_ to_fp 11 53) a_ack!66)))))
(assert (let ((a!1 (fp.eq (fp.abs (fp.sub roundNearestTiesToEven
                                  ((_ to_fp 11 53) #x8000000000000000)
                                  ((_ to_fp 11 53) a_ack!66)))
                  ((_ to_fp 11 53) #x0000000000000000))))
  (not a!1)))
(assert (let ((a!1 (fp.div roundNearestTiesToEven
                   (fp.mul roundNearestTiesToEven
                           (fp.sub roundNearestTiesToEven
                                   ((_ to_fp 11 53) #x8000000000000000)
                                   ((_ to_fp 11 53) a_ack!66))
                           ((_ to_fp 11 53) b_ack!65))
                   (fp.sub roundNearestTiesToEven
                           ((_ to_fp 11 53) #x8000000000000000)
                           ((_ to_fp 11 53) a_ack!66)))))
  (fp.eq a!1 ((_ to_fp 11 53) b_ack!65))))
(assert (not (fp.eq (fp.abs ((_ to_fp 11 53) b_ack!65))
            ((_ to_fp 11 53) #x0000000000000000))))
(assert (let ((a!1 (fp.div roundNearestTiesToEven
                   (fp.mul roundNearestTiesToEven
                           (fp.sub roundNearestTiesToEven
                                   ((_ to_fp 11 53) #x8000000000000000)
                                   ((_ to_fp 11 53) a_ack!66))
                           ((_ to_fp 11 53) b_ack!65))
                   ((_ to_fp 11 53) b_ack!65))))
  (fp.eq a!1
         (fp.sub roundNearestTiesToEven
                 ((_ to_fp 11 53) #x8000000000000000)
                 ((_ to_fp 11 53) a_ack!66)))))

(check-sat)
(exit)
